certificates/rado_a6_c8_N15.cnf
c Rad2 upper bound instance: x1 + 6*x2 - x3 = 8, interval [1,15]
p cnf 15 58
1 2 5 0
-1 -2 -5 0
1 3 11 0
-1 -3 -11 0
2 6 0
-2 -6 0
2 3 12 0
-2 -3 -12 0
1 3 0
-1 -3 0
2 3 7 0
-2 -3 -7 0
3 13 0
-3 -13 0
1 2 4 0
-1 -2 -4 0
2 4 8 0
-2 -4 -8 0
3 4 14 0
-3 -4 -14 0
1 3 5 0
-1 -3 -5 0
2 5 9 0
-2 -5 -9 0
3 5 15 0
-3 -5 -15 0
1 4 6 0
-1 -4 -6 0
2 6 10 0
-2 -6 -10 0
1 5 7 0
-1 -5 -7 0
2 7 11 0
-2 -7 -11 0
1 6 8 0
-1 -6 -8 0
2 8 12 0
-2 -8 -12 0
1 7 9 0
-1 -7 -9 0
2 9 13 0
-2 -9 -13 0
1 8 10 0
-1 -8 -10 0
2 10 14 0
-2 -10 -14 0
1 9 11 0
-1 -9 -11 0
2 11 15 0
-2 -11 -15 0
1 10 12 0
-1 -10 -12 0
1 11 13 0
-1 -11 -13 0
1 12 14 0
-1 -12 -14 0
1 13 15 0
-1 -13 -15 0
