certificates/rado_a6_c8_N15.drat
-13 -15 0
-15 0
13 0
-3 0
1 0
5 0
-11 0
-7 0
-2 0
0
